(set-logic QF_S)
(declare-fun var0 () String)
(assert (str.in.re var0 (re.++ (re.union (re.+ (str.to.re "000")) (re.+ (str.to.re "11"))) (re.++ (re.* (re.union (str.to.re "2") (str.to.re "33"))) (re.++ (re.* (re.+ (str.to.re "4"))) (re.++ (re.* (re.* (str.to.re "55"))) (re.++ (re.union (re.union (str.to.re "666") (str.to.re "77")) (re.union (str.to.re "88") (str.to.re "99"))) (re.++ (re.* (re.* (str.to.re "a"))) (re.++ (re.union (re.union (str.to.re "bbb") (str.to.re "cc")) (re.union (str.to.re "ddd") (str.to.re "e"))) (re.++ (re.union (re.union (str.to.re "fff") (str.to.re "gg")) (re.union (str.to.re "hh") (str.to.re "ii"))) (re.++ (re.* (re.+ (str.to.re "jjj"))) (re.++ (re.+ (re.union (str.to.re "k") (str.to.re "ll"))) (re.++ (re.union (re.+ (str.to.re "mm")) (re.+ (str.to.re "n"))) (re.++ (re.union (re.union (str.to.re "o") (str.to.re "pp")) (re.union (str.to.re "qq") (str.to.re "rr"))) (re.++ (re.+ (re.* (str.to.re "s"))) (re.++ (re.union (re.* (str.to.re "t")) (re.* (str.to.re "u"))) (re.++ (re.+ (re.+ (str.to.re "vv"))) (re.++ (re.union (re.union (str.to.re "www") (str.to.re "x")) (re.union (str.to.re "yyy") (str.to.re "z"))) (re.++ (re.* (re.* (str.to.re "AAA"))) (re.++ (re.* (re.union (str.to.re "BB") (str.to.re "CCC"))) (re.++ (re.+ (re.union (str.to.re "DDD") (str.to.re "EE"))) (re.++ (re.+ (re.* (str.to.re "FF"))) (re.++ (re.+ (re.union (str.to.re "GGG") (str.to.re "HHH"))) (re.++ (re.* (re.+ (str.to.re "I"))) (re.++ (re.+ (re.* (str.to.re "JJ"))) (re.++ (re.union (re.union (str.to.re "KK") (str.to.re "LLL")) (re.union (str.to.re "MM") (str.to.re "NN"))) (re.++ (re.union (re.union (str.to.re "OOO") (str.to.re "P")) (re.union (str.to.re "QQQ") (str.to.re "RR"))) (re.++ (re.union (re.+ (str.to.re "SS")) (re.+ (str.to.re "T"))) (re.++ (re.union (re.* (str.to.re "UUU")) (re.* (str.to.re "V"))) (re.++ (re.+ (re.* (str.to.re "W"))) (re.++ (re.+ (re.union (str.to.re "XXX") (str.to.re "YYY"))) (re.++ (re.* (re.+ (str.to.re "ZZZ"))) (re.++ (re.union (re.union (str.to.re "!") (str.to.re """")) (re.union (str.to.re "##") (str.to.re "$$"))) (re.++ (re.* (re.union (str.to.re "%%") (str.to.re "&"))) (re.++ (re.* (re.+ (str.to.re "''"))) (re.++ (re.union (re.+ (str.to.re "(")) (re.+ (str.to.re "))"))) (re.++ (re.+ (re.union (str.to.re "*") (str.to.re "+"))) (re.++ (re.+ (re.* (str.to.re ","))) (re.++ (re.union (re.+ (str.to.re "--")) (re.+ (str.to.re ".."))) (re.++ (re.+ (re.+ (str.to.re "///"))) (re.++ (re.+ (re.* (str.to.re ":::"))) (re.++ (re.+ (re.+ (str.to.re ";;"))) (re.++ (re.+ (re.* (str.to.re "<"))) (re.++ (re.+ (re.+ (str.to.re "=="))) (re.++ (re.union (re.union (str.to.re ">") (str.to.re "???")) (re.union (str.to.re "@@") (str.to.re "[["))) (re.++ (re.+ (re.+ (str.to.re "\\"))) (re.++ (re.union (re.+ (str.to.re "]]]")) (re.+ (str.to.re "^"))) (re.++ (re.union (re.* (str.to.re "___")) (re.* (str.to.re "```"))) (re.++ (re.+ (re.* (str.to.re "{{{"))) (re.++ (re.+ (re.* (str.to.re "|"))) (re.++ (re.+ (re.union (str.to.re "}}") (str.to.re "~"))) (re.++ (re.union (re.* (str.to.re "00")) (re.* (str.to.re "11"))) (re.++ (re.* (re.union (str.to.re "2") (str.to.re "333"))) (re.++ (re.union (re.union (str.to.re "4") (str.to.re "555")) (re.union (str.to.re "666") (str.to.re "7"))) (re.++ (re.* (re.+ (str.to.re "888"))) (re.++ (re.* (re.+ (str.to.re "99"))) (re.++ (re.union (re.union (str.to.re "aa") (str.to.re "bbb")) (re.union (str.to.re "ccc") (str.to.re "dd"))) (re.++ (re.* (re.+ (str.to.re "eee"))) (re.++ (re.+ (re.union (str.to.re "fff") (str.to.re "gg"))) (re.++ (re.+ (re.+ (str.to.re "hh"))) (re.++ (re.+ (re.union (str.to.re "i") (str.to.re "jjj"))) (re.++ (re.* (re.* (str.to.re "kkk"))) (re.++ (re.+ (re.+ (str.to.re "l"))) (re.++ (re.union (re.union (str.to.re "mm") (str.to.re "nn")) (re.union (str.to.re "oo") (str.to.re "p"))) (re.++ (re.* (re.+ (str.to.re "qqq"))) (re.++ (re.+ (re.+ (str.to.re "rr"))) (re.++ (re.* (re.+ (str.to.re "ss"))) (re.++ (re.* (re.union (str.to.re "ttt") (str.to.re "uuu"))) (re.++ (re.union (re.+ (str.to.re "v")) (re.+ (str.to.re "ww"))) (re.++ (re.* (re.+ (str.to.re "x"))) (re.++ (re.+ (re.* (str.to.re "yyy"))) (re.++ (re.* (re.union (str.to.re "z") (str.to.re "AAA"))) (re.union (re.union (str.to.re "BBB") (str.to.re "CCC")) (re.union (str.to.re "D") (str.to.re "E")))))))))))))))))))))))))))))))))))))))))))))))))))))))))))))))))))))))))))
(check-sat)